units		lj
comm_modify cutoff 2.0
atom_style	bond
special_bonds   fene
bond_style      fene
pair_style	lj/cut 1.12246
read_data	N100M100.data
neighbor	0.4 bin
neigh_modify	every 1 delay 1
bond_coeff	1 30.0 1.5 1.0 1.0
pair_modify	shift yes
pair_coeff	1 1 1.0 1.0 1.12246
change_box	all triclinic
thermo          1000
timestep	0.01
fix 1 all langevin 1.0 1.0 2.0 904297
fix 2 all nve/uefex erate 0.0 0.0
compute mytemp all temp/uefex
compute mypress all pressure/uefex mytemp
fix_modify 1 temp mytemp
fix_modify 2 u 0.001 # uniaxial elongation rate 0.001

## compute rotation/uefex
compute rmatrix all rotation/uefex

thermo_style custom step cpu c_rmatrix[*]

run 1000000

write_data N100M100.after1M.data

## dump d1 all custom/uefex 100 dump.lab-frame.lammpstrj id mol type x y z vx vy vz fx fy fz
## dump_modify d1 sort id
## dump_modify d1 pbc yes


variable freq string 100
fix rot all ave/time ${freq} 1 ${freq}  c_rmatrix[*] file rotation.txt

variable a loop 100 pad
label loop
run 100
write_data N100M100.$a.data
next a
jump SELF loop





